30
1000 1000
596 62
384 290
118 431
67 709
307 248
85 927
493 72
121 785
191 773
636 735
940 292
159 401
66 813
112 436
943 317
981 606
536 139
599 90
808 822
520 951
368 817
807 266
271 922
556 587
38 617
606 96
648 447
161 889
466 863
547 953
